(set-logic LIA)
(declare-datatypes ((rt_state.speed_status_t 0))
	(((rt_state.speed_statusFast_speed) (rt_state.speed_statusMidium_speed) (rt_state.speed_statusSlow_speed) (rt_state.speed_statusStop) )))
(synth-fun next ((rt_state.speed_status rt_state.speed_status_t)(rt_input.obsDistance_0 Int) (rt_input.obsDistance_1 Int) (rt_input.obsDistance_2 Int) (rt_input.obsDistance_3 Int) (rt_state.zone_0 Int) (rt_state.zone_1 Int) ) Int
	((Start Int)  (Var Int) (EnumVar0 rt_state.speed_status_t) (StartBool Bool))
	((Start Int (
				 0
				 1
				 (ite StartBool Start Start)))

	(Var Int (
				 1
				 2
				 7
				 24
				 0
				 12
				 3
			 rt_input.obsDistance_0
			 rt_input.obsDistance_1
			 rt_input.obsDistance_2
			 rt_input.obsDistance_3
			 rt_state.zone_0
			 rt_state.zone_1
				(abs Var)						
			 	(+ Var Var)						
			 	(- Var Var)						
			 	(* Var Var)))

(EnumVar0 rt_state.speed_status_t (
	rt_state.speed_status
rt_state.speed_statusFast_speed
rt_state.speed_statusMidium_speed
rt_state.speed_statusSlow_speed
rt_state.speed_statusStop
))

	 (StartBool Bool (
	 ( = EnumVar0 EnumVar0)
					 (> Var Var)						
					 (>= Var Var)						
					 (< Var Var)						
					 (<= Var Var)						
					 (= Var Var)						
					 (and StartBool StartBool)			
					 (or  StartBool StartBool)				
					 (not StartBool)))))

(constraint (= (next rt_state.speed_statusSlow_speed 15 13 15 6 2 2 ) 0))
(constraint (= (next rt_state.speed_statusMidium_speed 22 15 21 6 2 2 ) 0))
(constraint (= (next rt_state.speed_statusMidium_speed 3 22 15 15 1 2 ) 0))
(constraint (= (next rt_state.speed_statusSlow_speed 2 19 22 16 0 2 ) 0))
(constraint (= (next rt_state.speed_statusSlow_speed 7 0 23 9 2 0 ) 1))
(constraint (= (next rt_state.speed_statusMidium_speed 12 12 17 15 2 2 ) 0))
(constraint (= (next rt_state.speed_statusMidium_speed 7 6 15 9 2 2 ) 0))
(constraint (= (next rt_state.speed_statusSlow_speed 14 2 9 22 2 0 ) 1))
(constraint (= (next rt_state.speed_statusFast_speed 21 9 14 2 2 2 ) 0))
(constraint (= (next rt_state.speed_statusMidium_speed 11 7 10 21 2 2 ) 0))
(constraint (= (next rt_state.speed_statusFast_speed 18 18 2 15 2 2 ) 1))
(constraint (= (next rt_state.speed_statusSlow_speed 18 21 8 7 2 2 ) 0))
(constraint (= (next rt_state.speed_statusMidium_speed 17 19 6 8 2 2 ) 0))
(constraint (= (next rt_state.speed_statusSlow_speed 1 1 23 18 0 0 ) 1))
(constraint (= (next rt_state.speed_statusMidium_speed 15 13 7 5 2 2 ) 0))
(constraint (= (next rt_state.speed_statusSlow_speed 1 24 12 20 0 2 ) 0))
(constraint (= (next rt_state.speed_statusMidium_speed 8 22 10 19 2 2 ) 0))
(constraint (= (next rt_state.speed_statusFast_speed 12 16 2 15 2 2 ) 1))
(constraint (= (next rt_state.speed_statusSlow_speed 18 2 0 19 2 0 ) 1))
(constraint (= (next rt_state.speed_statusMidium_speed 20 9 22 13 2 2 ) 0))
(constraint (= (next rt_state.speed_statusSlow_speed 24 14 1 2 2 2 ) 0))
(constraint (= (next rt_state.speed_statusMidium_speed 9 16 8 16 2 2 ) 0))
(constraint (= (next rt_state.speed_statusSlow_speed 2 24 15 22 0 2 ) 0))
(constraint (= (next rt_state.speed_statusFast_speed 20 8 0 21 2 2 ) 1))
(constraint (= (next rt_state.speed_statusSlow_speed 3 23 20 16 1 2 ) 0))
(constraint (= (next rt_state.speed_statusSlow_speed 24 6 1 4 2 2 ) 0))
(constraint (= (next rt_state.speed_statusFast_speed 6 17 10 2 2 2 ) 0))
(constraint (= (next rt_state.speed_statusMidium_speed 8 7 22 10 2 2 ) 0))
(constraint (= (next rt_state.speed_statusMidium_speed 24 19 15 3 2 2 ) 0))
(constraint (= (next rt_state.speed_statusMidium_speed 13 3 9 20 2 1 ) 1))
(constraint (= (next rt_state.speed_statusMidium_speed 12 21 0 0 2 2 ) 0))
(constraint (= (next rt_state.speed_statusFast_speed 8 12 23 2 2 2 ) 0))
(constraint (= (next rt_state.speed_statusSlow_speed 3 3 4 11 1 1 ) 0))
(constraint (= (next rt_state.speed_statusSlow_speed 12 0 13 15 2 0 ) 1))
(constraint (= (next rt_state.speed_statusMidium_speed 12 8 18 14 2 2 ) 0))
(constraint (= (next rt_state.speed_statusSlow_speed 0 18 21 1 0 2 ) 0))
(constraint (= (next rt_state.speed_statusSlow_speed 7 2 11 5 2 0 ) 1))
(constraint (= (next rt_state.speed_statusMidium_speed 12 19 8 8 2 2 ) 0))
(constraint (= (next rt_state.speed_statusSlow_speed 8 24 3 0 2 2 ) 1))
(constraint (= (next rt_state.speed_statusMidium_speed 16 13 11 10 2 2 ) 0))
(constraint (= (next rt_state.speed_statusMidium_speed 7 13 24 14 2 2 ) 0))
(constraint (= (next rt_state.speed_statusMidium_speed 18 22 10 13 2 2 ) 0))
(constraint (= (next rt_state.speed_statusSlow_speed 11 24 17 5 2 2 ) 0))
(constraint (= (next rt_state.speed_statusMidium_speed 15 17 7 4 2 2 ) 0))
(constraint (= (next rt_state.speed_statusFast_speed 17 19 0 17 2 2 ) 1))
(constraint (= (next rt_state.speed_statusSlow_speed 0 23 11 11 0 2 ) 0))
(constraint (= (next rt_state.speed_statusMidium_speed 20 20 18 20 2 2 ) 0))
(constraint (= (next rt_state.speed_statusMidium_speed 16 22 6 4 2 2 ) 0))
(constraint (= (next rt_state.speed_statusSlow_speed 2 8 10 19 0 2 ) 0))
(constraint (= (next rt_state.speed_statusSlow_speed 15 2 10 1 2 0 ) 1))
(constraint (= (next rt_state.speed_statusMidium_speed 8 8 6 16 2 2 ) 0))
(constraint (= (next rt_state.speed_statusSlow_speed 0 7 12 2 0 2 ) 0))
(constraint (= (next rt_state.speed_statusSlow_speed 17 4 22 1 2 1 ) 0))
(constraint (= (next rt_state.speed_statusSlow_speed 1 12 9 3 0 2 ) 0))
(constraint (= (next rt_state.speed_statusMidium_speed 21 11 20 23 2 2 ) 0))
(constraint (= (next rt_state.speed_statusMidium_speed 4 24 10 21 1 2 ) 0))
(constraint (= (next rt_state.speed_statusFast_speed 24 13 17 0 2 2 ) 0))
(constraint (= (next rt_state.speed_statusFast_speed 19 11 20 0 2 2 ) 0))
(constraint (= (next rt_state.speed_statusMidium_speed 6 20 19 8 2 2 ) 0))
(constraint (= (next rt_state.speed_statusMidium_speed 5 20 11 19 2 2 ) 0))
(constraint (= (next rt_state.speed_statusSlow_speed 0 22 8 9 0 2 ) 0))
(constraint (= (next rt_state.speed_statusSlow_speed 24 0 11 7 2 0 ) 1))
(constraint (= (next rt_state.speed_statusSlow_speed 4 2 14 16 1 0 ) 1))
(constraint (= (next rt_state.speed_statusMidium_speed 14 7 6 21 2 2 ) 0))
(constraint (= (next rt_state.speed_statusMidium_speed 14 12 3 16 2 2 ) 0))
(constraint (= (next rt_state.speed_statusMidium_speed 24 11 10 5 2 2 ) 0))
(constraint (= (next rt_state.speed_statusMidium_speed 14 9 21 5 2 2 ) 0))
(constraint (= (next rt_state.speed_statusSlow_speed 17 2 12 13 2 0 ) 1))
(constraint (= (next rt_state.speed_statusMidium_speed 20 23 18 6 2 2 ) 0))
(constraint (= (next rt_state.speed_statusMidium_speed 15 16 11 3 2 2 ) 0))
(constraint (= (next rt_state.speed_statusMidium_speed 4 9 11 2 1 2 ) 0))
(constraint (= (next rt_state.speed_statusMidium_speed 23 14 7 17 2 2 ) 0))
(constraint (= (next rt_state.speed_statusMidium_speed 22 22 11 17 2 2 ) 0))
(constraint (= (next rt_state.speed_statusSlow_speed 10 22 20 15 2 2 ) 0))
(constraint (= (next rt_state.speed_statusSlow_speed 0 1 16 4 0 0 ) 1))
(constraint (= (next rt_state.speed_statusMidium_speed 9 10 21 5 2 2 ) 0))
(constraint (= (next rt_state.speed_statusMidium_speed 21 24 23 6 2 2 ) 0))
(constraint (= (next rt_state.speed_statusSlow_speed 20 1 3 2 2 0 ) 1))
(constraint (= (next rt_state.speed_statusSlow_speed 10 24 0 4 2 2 ) 0))
(constraint (= (next rt_state.speed_statusMidium_speed 4 20 5 6 1 2 ) 0))
(constraint (= (next rt_state.speed_statusFast_speed 19 16 15 0 2 2 ) 0))
(constraint (= (next rt_state.speed_statusFast_speed 12 14 19 0 2 2 ) 0))
(constraint (= (next rt_state.speed_statusSlow_speed 1 17 5 23 0 2 ) 0))
(constraint (= (next rt_state.speed_statusSlow_speed 2 6 8 11 0 2 ) 0))
(constraint (= (next rt_state.speed_statusSlow_speed 3 12 19 14 1 2 ) 1))
(constraint (= (next rt_state.speed_statusMidium_speed 11 21 11 9 2 2 ) 0))
(constraint (= (next rt_state.speed_statusMidium_speed 6 15 4 11 2 2 ) 0))
(constraint (= (next rt_state.speed_statusMidium_speed 14 22 8 20 2 2 ) 0))
(constraint (= (next rt_state.speed_statusSlow_speed 0 1 17 2 0 0 ) 1))
(constraint (= (next rt_state.speed_statusSlow_speed 23 0 5 11 2 0 ) 1))
(constraint (= (next rt_state.speed_statusSlow_speed 0 17 4 1 0 2 ) 0))
(constraint (= (next rt_state.speed_statusMidium_speed 8 23 1 7 2 2 ) 1))
(constraint (= (next rt_state.speed_statusMidium_speed 14 9 20 21 2 2 ) 0))
(constraint (= (next rt_state.speed_statusMidium_speed 6 24 7 19 2 2 ) 0))
(constraint (= (next rt_state.speed_statusFast_speed 23 10 13 0 2 2 ) 0))
(constraint (= (next rt_state.speed_statusSlow_speed 18 5 7 12 2 2 ) 0))
(constraint (= (next rt_state.speed_statusMidium_speed 16 10 18 3 2 2 ) 0))
(constraint (= (next rt_state.speed_statusFast_speed 17 12 15 1 2 2 ) 0))
(constraint (= (next rt_state.speed_statusMidium_speed 8 20 18 20 2 2 ) 0))
(constraint (= (next rt_state.speed_statusMidium_speed 8 13 6 9 2 2 ) 0))
(constraint (= (next rt_state.speed_statusSlow_speed 1 18 10 11 0 2 ) 0))
(constraint (= (next rt_state.speed_statusMidium_speed 12 21 6 22 2 2 ) 0))
(constraint (= (next rt_state.speed_statusSlow_speed 2 18 7 1 0 2 ) 0))
(constraint (= (next rt_state.speed_statusMidium_speed 19 23 20 7 2 2 ) 0))
(constraint (= (next rt_state.speed_statusMidium_speed 12 23 18 10 2 2 ) 0))
(constraint (= (next rt_state.speed_statusMidium_speed 20 5 24 23 2 2 ) 0))
(constraint (= (next rt_state.speed_statusMidium_speed 17 13 10 20 2 2 ) 0))
(constraint (= (next rt_state.speed_statusMidium_speed 10 24 13 5 2 2 ) 0))
(constraint (= (next rt_state.speed_statusSlow_speed 9 17 13 12 2 2 ) 0))
(constraint (= (next rt_state.speed_statusMidium_speed 23 24 20 19 2 2 ) 0))
(constraint (= (next rt_state.speed_statusMidium_speed 12 14 18 14 2 2 ) 0))
(constraint (= (next rt_state.speed_statusMidium_speed 11 8 3 21 2 2 ) 0))
(constraint (= (next rt_state.speed_statusMidium_speed 8 8 4 22 2 2 ) 0))
(constraint (= (next rt_state.speed_statusSlow_speed 12 0 14 0 2 0 ) 1))
(constraint (= (next rt_state.speed_statusMidium_speed 14 22 5 22 2 2 ) 0))
(constraint (= (next rt_state.speed_statusSlow_speed 4 2 11 12 1 0 ) 1))
(constraint (= (next rt_state.speed_statusSlow_speed 0 9 15 12 0 2 ) 0))
(constraint (= (next rt_state.speed_statusMidium_speed 15 18 9 17 2 2 ) 0))
(constraint (= (next rt_state.speed_statusMidium_speed 14 3 9 23 2 1 ) 1))
(constraint (= (next rt_state.speed_statusMidium_speed 12 10 16 6 2 2 ) 0))
(constraint (= (next rt_state.speed_statusSlow_speed 13 1 22 12 2 0 ) 1))
(constraint (= (next rt_state.speed_statusFast_speed 9 23 24 0 2 2 ) 0))
(constraint (= (next rt_state.speed_statusMidium_speed 14 6 14 3 2 2 ) 0))
(constraint (= (next rt_state.speed_statusFast_speed 5 13 1 16 2 2 ) 1))
(constraint (= (next rt_state.speed_statusMidium_speed 12 23 18 5 2 2 ) 0))
(constraint (= (next rt_state.speed_statusMidium_speed 6 17 8 11 2 2 ) 0))
(constraint (= (next rt_state.speed_statusMidium_speed 20 3 3 22 2 1 ) 1))
(constraint (= (next rt_state.speed_statusSlow_speed 6 1 18 16 2 0 ) 1))
(constraint (= (next rt_state.speed_statusFast_speed 15 24 12 0 2 2 ) 0))
(constraint (= (next rt_state.speed_statusSlow_speed 0 19 9 19 0 2 ) 0))
(constraint (= (next rt_state.speed_statusSlow_speed 9 10 3 3 2 2 ) 0))
(constraint (= (next rt_state.speed_statusMidium_speed 24 5 15 9 2 2 ) 0))
(constraint (= (next rt_state.speed_statusMidium_speed 5 18 7 23 2 2 ) 0))
(constraint (= (next rt_state.speed_statusMidium_speed 3 7 15 11 1 2 ) 0))
(constraint (= (next rt_state.speed_statusFast_speed 5 13 16 0 2 2 ) 0))
(constraint (= (next rt_state.speed_statusMidium_speed 9 22 17 20 2 2 ) 0))
(constraint (= (next rt_state.speed_statusMidium_speed 8 23 7 11 2 2 ) 0))
(constraint (= (next rt_state.speed_statusSlow_speed 0 1 11 14 0 0 ) 0))
(constraint (= (next rt_state.speed_statusMidium_speed 5 19 15 16 2 2 ) 0))
(constraint (= (next rt_state.speed_statusMidium_speed 23 6 9 7 2 2 ) 0))
(constraint (= (next rt_state.speed_statusSlow_speed 4 2 6 3 1 0 ) 1))
(constraint (= (next rt_state.speed_statusMidium_speed 24 20 8 14 2 2 ) 0))
(constraint (= (next rt_state.speed_statusMidium_speed 15 19 24 22 2 2 ) 0))
(constraint (= (next rt_state.speed_statusSlow_speed 10 22 5 23 2 2 ) 0))
(constraint (= (next rt_state.speed_statusMidium_speed 10 13 5 22 2 2 ) 0))
(constraint (= (next rt_state.speed_statusMidium_speed 12 24 20 9 2 2 ) 0))
(constraint (= (next rt_state.speed_statusMidium_speed 9 21 22 24 2 2 ) 0))
(constraint (= (next rt_state.speed_statusFast_speed 24 24 19 2 2 2 ) 0))
(constraint (= (next rt_state.speed_statusMidium_speed 22 11 22 22 2 2 ) 0))
(constraint (= (next rt_state.speed_statusMidium_speed 10 12 3 7 2 2 ) 0))
(constraint (= (next rt_state.speed_statusMidium_speed 24 20 22 19 2 2 ) 0))
(constraint (= (next rt_state.speed_statusMidium_speed 6 5 2 6 2 2 ) 1))
(constraint (= (next rt_state.speed_statusMidium_speed 23 21 7 4 2 2 ) 0))
(constraint (= (next rt_state.speed_statusMidium_speed 17 19 3 17 2 2 ) 0))
(constraint (= (next rt_state.speed_statusMidium_speed 21 7 14 17 2 2 ) 0))
(constraint (= (next rt_state.speed_statusMidium_speed 20 22 18 3 2 2 ) 0))
(constraint (= (next rt_state.speed_statusMidium_speed 15 8 10 8 2 2 ) 0))
(constraint (= (next rt_state.speed_statusFast_speed 6 16 1 13 2 2 ) 1))
(constraint (= (next rt_state.speed_statusFast_speed 21 24 0 17 2 2 ) 1))
(constraint (= (next rt_state.speed_statusSlow_speed 14 15 13 6 2 2 ) 0))
(constraint (= (next rt_state.speed_statusSlow_speed 1 14 18 20 0 2 ) 0))
(constraint (= (next rt_state.speed_statusMidium_speed 5 20 20 17 2 2 ) 0))
(constraint (= (next rt_state.speed_statusMidium_speed 18 16 3 13 2 2 ) 0))
(constraint (= (next rt_state.speed_statusMidium_speed 19 24 22 6 2 2 ) 0))
(constraint (= (next rt_state.speed_statusSlow_speed 23 1 20 23 2 0 ) 1))
(constraint (= (next rt_state.speed_statusSlow_speed 0 1 3 22 0 0 ) 0))
(constraint (= (next rt_state.speed_statusSlow_speed 17 2 2 14 2 0 ) 1))
(constraint (= (next rt_state.speed_statusSlow_speed 0 6 14 15 0 2 ) 0))
(constraint (= (next rt_state.speed_statusMidium_speed 6 13 17 20 2 2 ) 0))
(constraint (= (next rt_state.speed_statusSlow_speed 17 9 0 3 2 2 ) 0))
(constraint (= (next rt_state.speed_statusMidium_speed 11 8 11 8 2 2 ) 0))
(constraint (= (next rt_state.speed_statusMidium_speed 22 18 10 5 2 2 ) 0))
(constraint (= (next rt_state.speed_statusSlow_speed 0 3 5 14 0 1 ) 0))
(constraint (= (next rt_state.speed_statusSlow_speed 8 1 11 3 2 0 ) 1))
(constraint (= (next rt_state.speed_statusFast_speed 18 9 1 20 2 2 ) 1))
(constraint (= (next rt_state.speed_statusSlow_speed 23 0 23 6 2 0 ) 1))
(constraint (= (next rt_state.speed_statusSlow_speed 22 20 1 3 2 2 ) 0))
(constraint (= (next rt_state.speed_statusSlow_speed 15 9 16 12 2 2 ) 0))
(constraint (= (next rt_state.speed_statusMidium_speed 10 12 22 17 2 2 ) 0))
(constraint (= (next rt_state.speed_statusMidium_speed 11 16 8 8 2 2 ) 0))
(constraint (= (next rt_state.speed_statusMidium_speed 5 4 15 8 2 1 ) 1))
(constraint (= (next rt_state.speed_statusMidium_speed 18 23 19 6 2 2 ) 0))
(constraint (= (next rt_state.speed_statusMidium_speed 6 20 16 24 2 2 ) 0))
(constraint (= (next rt_state.speed_statusMidium_speed 10 13 20 24 2 2 ) 0))
(constraint (= (next rt_state.speed_statusSlow_speed 1 14 3 12 0 2 ) 0))
(constraint (= (next rt_state.speed_statusMidium_speed 21 23 7 8 2 2 ) 0))
(constraint (= (next rt_state.speed_statusMidium_speed 9 15 7 0 2 2 ) 0))
(constraint (= (next rt_state.speed_statusMidium_speed 14 8 6 24 2 2 ) 0))
(constraint (= (next rt_state.speed_statusSlow_speed 0 0 19 14 0 0 ) 1))
(constraint (= (next rt_state.speed_statusSlow_speed 6 4 12 3 2 1 ) 0))
(constraint (= (next rt_state.speed_statusMidium_speed 8 13 23 21 2 2 ) 0))
(constraint (= (next rt_state.speed_statusSlow_speed 5 18 4 0 2 2 ) 1))
(constraint (= (next rt_state.speed_statusMidium_speed 7 21 22 7 2 2 ) 0))
(constraint (= (next rt_state.speed_statusFast_speed 18 5 1 11 2 2 ) 1))
(constraint (= (next rt_state.speed_statusFast_speed 22 17 12 2 2 2 ) 0))
(constraint (= (next rt_state.speed_statusMidium_speed 5 5 10 24 2 2 ) 0))
(constraint (= (next rt_state.speed_statusSlow_speed 16 0 11 2 2 0 ) 1))
(constraint (= (next rt_state.speed_statusMidium_speed 9 16 4 18 2 2 ) 0))
(constraint (= (next rt_state.speed_statusMidium_speed 9 14 24 23 2 2 ) 0))
(constraint (= (next rt_state.speed_statusSlow_speed 12 13 24 5 2 2 ) 0))
(constraint (= (next rt_state.speed_statusMidium_speed 7 21 21 3 2 2 ) 0))
(constraint (= (next rt_state.speed_statusFast_speed 10 7 1 19 2 2 ) 1))
(constraint (= (next rt_state.speed_statusMidium_speed 5 4 15 3 2 1 ) 0))
(constraint (= (next rt_state.speed_statusMidium_speed 22 24 16 11 2 2 ) 0))
(constraint (= (next rt_state.speed_statusMidium_speed 3 24 1 8 1 2 ) 0))
(constraint (= (next rt_state.speed_statusMidium_speed 23 5 14 20 2 2 ) 0))
(constraint (= (next rt_state.speed_statusMidium_speed 20 9 4 10 2 2 ) 0))
(constraint (= (next rt_state.speed_statusMidium_speed 14 17 12 4 2 2 ) 0))
(constraint (= (next rt_state.speed_statusSlow_speed 2 11 0 3 0 2 ) 0))
(constraint (= (next rt_state.speed_statusSlow_speed 15 0 18 13 2 0 ) 1))
(constraint (= (next rt_state.speed_statusMidium_speed 14 20 7 6 2 2 ) 0))
(constraint (= (next rt_state.speed_statusMidium_speed 12 6 7 9 2 2 ) 0))
(constraint (= (next rt_state.speed_statusMidium_speed 20 11 14 9 2 2 ) 0))
(constraint (= (next rt_state.speed_statusMidium_speed 9 16 9 18 2 2 ) 0))
(constraint (= (next rt_state.speed_statusSlow_speed 17 6 20 7 2 2 ) 0))
(constraint (= (next rt_state.speed_statusMidium_speed 9 20 2 6 2 2 ) 1))
(constraint (= (next rt_state.speed_statusMidium_speed 20 8 7 6 2 2 ) 0))
(constraint (= (next rt_state.speed_statusSlow_speed 2 22 23 24 0 2 ) 0))
(constraint (= (next rt_state.speed_statusMidium_speed 21 17 19 17 2 2 ) 0))
(constraint (= (next rt_state.speed_statusSlow_speed 0 14 20 5 0 2 ) 0))
(constraint (= (next rt_state.speed_statusSlow_speed 2 5 8 23 0 2 ) 0))
(constraint (= (next rt_state.speed_statusMidium_speed 9 3 0 6 2 1 ) 0))
(constraint (= (next rt_state.speed_statusMidium_speed 14 23 16 12 2 2 ) 0))
(constraint (= (next rt_state.speed_statusSlow_speed 2 5 1 16 0 2 ) 0))
(constraint (= (next rt_state.speed_statusMidium_speed 16 22 21 15 2 2 ) 0))
(constraint (= (next rt_state.speed_statusMidium_speed 10 12 8 22 2 2 ) 0))
(constraint (= (next rt_state.speed_statusSlow_speed 3 20 1 4 1 2 ) 1))
(constraint (= (next rt_state.speed_statusSlow_speed 7 4 0 16 2 1 ) 0))
(constraint (= (next rt_state.speed_statusSlow_speed 9 4 0 4 2 1 ) 0))
(constraint (= (next rt_state.speed_statusMidium_speed 19 5 2 2 2 2 ) 0))
(constraint (= (next rt_state.speed_statusStop 2 2 1 1 0 0 ) 0))
(constraint (= (next rt_state.speed_statusSlow_speed 0 2 12 24 0 0 ) 0))
(constraint (= (next rt_state.speed_statusSlow_speed 2 2 3 2 0 0 ) 1))
(constraint (= (next rt_state.speed_statusSlow_speed 1 4 2 3 0 1 ) 0))
(constraint (= (next rt_state.speed_statusSlow_speed 12 13 3 2 2 2 ) 1))
(constraint (= (next rt_state.speed_statusSlow_speed 3 6 2 1 1 2 ) 0))
(constraint (= (next rt_state.speed_statusSlow_speed 3 6 2 3 1 2 ) 0))
(constraint (= (next rt_state.speed_statusMidium_speed 5 5 1 6 2 2 ) 1))
(constraint (= (next rt_state.speed_statusSlow_speed 3 24 2 6 1 2 ) 1))
(constraint (= (next rt_state.speed_statusSlow_speed 2 13 2 4 0 2 ) 0))
(constraint (= (next rt_state.speed_statusMidium_speed 7 17 0 6 2 2 ) 1))
(constraint (= (next rt_state.speed_statusSlow_speed 2 2 11 11 0 0 ) 0))
(constraint (= (next rt_state.speed_statusSlow_speed 3 23 11 11 1 2 ) 1))
(constraint (= (next rt_state.speed_statusSlow_speed 2 2 24 8 0 0 ) 1))
(constraint (= (next rt_state.speed_statusSlow_speed 2 2 8 8 0 0 ) 0))
(constraint (= (next rt_state.speed_statusMidium_speed 12 5 6 2 2 2 ) 0))
(constraint (= (next rt_state.speed_statusSlow_speed 4 3 2 1 1 1 ) 0))
(constraint (= (next rt_state.speed_statusSlow_speed 4 7 3 0 1 2 ) 0))
(constraint (= (next rt_state.speed_statusSlow_speed 7 5 3 2 2 2 ) 1))
(constraint (= (next rt_state.speed_statusFast_speed 5 7 2 23 2 2 ) 1))
(constraint (= (next rt_state.speed_statusSlow_speed 6 23 5 2 2 2 ) 0))
(constraint (= (next rt_state.speed_statusSlow_speed 3 6 2 3 1 2 ) 1))
(constraint (= (next rt_state.speed_statusMidium_speed 6 7 2 9 2 2 ) 1))
(constraint (= (next rt_state.speed_statusSlow_speed 6 7 5 1 2 2 ) 0))
(constraint (= (next rt_state.speed_statusSlow_speed 0 2 10 9 0 0 ) 1))
(constraint (= (next rt_state.speed_statusSlow_speed 7 6 0 5 2 2 ) 0))
(constraint (= (next rt_state.speed_statusSlow_speed 5 19 5 2 2 2 ) 0))
(constraint (= (next rt_state.speed_statusSlow_speed 5 6 0 4 2 2 ) 0))
(constraint (= (next rt_state.speed_statusSlow_speed 7 1 0 3 2 0 ) 1))
(constraint (= (next rt_state.speed_statusSlow_speed 2 1 13 13 0 0 ) 0))

(check-synth)
